NAME
ROWS
 N  OBJ
 G  c1
 G  c2
 G  c3
 G  c4
 G  c5
 G  c6
 G  c7
 G  c8
 G  c9
 G  c10
 G  c11
 G  c12
 G  c13
 G  c14
 G  c15
 G  c16
 G  c17
 G  c18
 G  c19
 G  c20
 G  c21
 G  c22
 G  c23
 G  c24
 G  c25
 G  c26
 G  c27
 G  c28
 G  c29
 G  c30
 G  c31
 G  c32
 G  c33
 G  c34
 G  c35
 G  c36
 G  c37
 G  c38
 G  c39
 G  c40
 G  c41
 G  c42
 G  c43
 G  c44
 G  c45
 G  c46
 G  c47
 G  c48
 G  c49
 G  c50
 G  c51
 G  c52
 G  c53
 G  c54
 G  c55
 G  c56
 G  c57
 G  c58
 G  c59
 G  c60
 G  c61
 G  c62
 G  c63
 G  c64
 G  c65
 G  c66
 G  c67
 G  c68
 G  c69
 G  c70
 G  c71
 G  c72
 G  c73
 G  c74
 G  c75
 G  c76
 G  c77
 G  c78
 G  c79
 G  c80
 G  c81
 G  c82
 G  c83
 G  c84
 G  c85
 G  c86
 G  c87
 G  c88
 G  c89
 G  c90
COLUMNS
    MARKER    'MARKER'                 'INTORG'
    x[1]      c1        1
    x[1]      c24       1
    x[1]      c33       1
    x[1]      c58       1
    x[1]      c71       1
    x[1]      c78       1
    x[1]      OBJ       1
    x[2]      c2        1
    x[2]      c3        1
    x[2]      c24       1
    x[2]      c37       1
    x[2]      c38       1
    x[2]      c47       1
    x[2]      c58       1
    x[2]      c70       1
    x[2]      c78       1
    x[2]      c79       1
    x[2]      c81       1
    x[2]      c83       1
    x[2]      OBJ       1
    x[3]      c2        1
    x[3]      c3        1
    x[3]      c6        1
    x[3]      c10       1
    x[3]      c14       1
    x[3]      c20       1
    x[3]      c33       1
    x[3]      c38       1
    x[3]      c43       1
    x[3]      c50       1
    x[3]      c52       1
    x[3]      c54       1
    x[3]      c57       1
    x[3]      c67       1
    x[3]      c74       1
    x[3]      c81       1
    x[3]      c84       1
    x[3]      OBJ       1
    x[4]      c4        1
    x[4]      c18       1
    x[4]      c23       1
    x[4]      c28       1
    x[4]      c38       1
    x[4]      c39       1
    x[4]      c69       1
    x[4]      c75       1
    x[4]      c77       1
    x[4]      c81       1
    x[4]      c84       1
    x[4]      OBJ       1
    x[5]      c5        1
    x[5]      c11       1
    x[5]      c24       1
    x[5]      c25       1
    x[5]      c31       1
    x[5]      c59       1
    x[5]      c62       1
    x[5]      c64       1
    x[5]      c84       1
    x[5]      OBJ       1
    x[6]      c3        1
    x[6]      c6        1
    x[6]      c21       1
    x[6]      c41       1
    x[6]      c62       1
    x[6]      c66       1
    x[6]      c73       1
    x[6]      c76       1
    x[6]      c81       1
    x[6]      c82       1
    x[6]      c86       1
    x[6]      OBJ       1
    x[7]      c7        1
    x[7]      c54       1
    x[7]      c60       1
    x[7]      c75       1
    x[7]      c81       1
    x[7]      c83       1
    x[7]      c86       1
    x[7]      OBJ       1
    x[8]      c8        1
    x[8]      c11       1
    x[8]      c22       1
    x[8]      c27       1
    x[8]      c45       1
    x[8]      c53       1
    x[8]      c54       1
    x[8]      c71       1
    x[8]      c79       1
    x[8]      c80       1
    x[8]      c82       1
    x[8]      OBJ       1
    x[9]      c9        1
    x[9]      c14       1
    x[9]      c20       1
    x[9]      c27       1
    x[9]      c32       1
    x[9]      c36       1
    x[9]      c57       1
    x[9]      c59       1
    x[9]      c83       1
    x[9]      c84       1
    x[9]      OBJ       1
    x[10]     c3        1
    x[10]     c10       1
    x[10]     c11       1
    x[10]     c16       1
    x[10]     c21       1
    x[10]     c44       1
    x[10]     c83       1
    x[10]     OBJ       1
    x[11]     c5        1
    x[11]     c8        1
    x[11]     c10       1
    x[11]     c11       1
    x[11]     c13       1
    x[11]     c20       1
    x[11]     c21       1
    x[11]     c23       1
    x[11]     c35       1
    x[11]     c38       1
    x[11]     c39       1
    x[11]     c43       1
    x[11]     c48       1
    x[11]     c80       1
    x[11]     OBJ       1
    x[12]     c12       1
    x[12]     c13       1
    x[12]     c16       1
    x[12]     c25       1
    x[12]     c28       1
    x[12]     c49       1
    x[12]     c58       1
    x[12]     c65       1
    x[12]     c87       1
    x[12]     OBJ       1
    x[13]     c11       1
    x[13]     c12       1
    x[13]     c13       1
    x[13]     c61       1
    x[13]     c86       1
    x[13]     OBJ       1
    x[14]     c3        1
    x[14]     c9        1
    x[14]     c14       1
    x[14]     c17       1
    x[14]     c21       1
    x[14]     c29       1
    x[14]     c59       1
    x[14]     c66       1
    x[14]     c72       1
    x[14]     c73       1
    x[14]     c79       1
    x[14]     c85       1
    x[14]     OBJ       1
    x[15]     c15       1
    x[15]     c16       1
    x[15]     c26       1
    x[15]     c33       1
    x[15]     c42       1
    x[15]     c43       1
    x[15]     c45       1
    x[15]     c47       1
    x[15]     c55       1
    x[15]     c66       1
    x[15]     c67       1
    x[15]     c85       1
    x[15]     OBJ       1
    x[16]     c10       1
    x[16]     c12       1
    x[16]     c15       1
    x[16]     c16       1
    x[16]     c22       1
    x[16]     c27       1
    x[16]     c31       1
    x[16]     c33       1
    x[16]     c36       1
    x[16]     c43       1
    x[16]     c47       1
    x[16]     c64       1
    x[16]     OBJ       1
    x[17]     c14       1
    x[17]     c17       1
    x[17]     c45       1
    x[17]     c47       1
    x[17]     c49       1
    x[17]     c83       1
    x[17]     OBJ       1
    x[18]     c4        1
    x[18]     c18       1
    x[18]     c22       1
    x[18]     c36       1
    x[18]     c66       1
    x[18]     c68       1
    x[18]     c72       1
    x[18]     c76       1
    x[18]     c83       1
    x[18]     c90       1
    x[18]     OBJ       1
    x[19]     c19       1
    x[19]     c63       1
    x[19]     c73       1
    x[19]     OBJ       1
    x[20]     c3        1
    x[20]     c9        1
    x[20]     c11       1
    x[20]     c20       1
    x[20]     c32       1
    x[20]     c35       1
    x[20]     c54       1
    x[20]     c69       1
    x[20]     c70       1
    x[20]     c78       1
    x[20]     OBJ       1
    x[21]     c6        1
    x[21]     c10       1
    x[21]     c11       1
    x[21]     c14       1
    x[21]     c21       1
    x[21]     c40       1
    x[21]     c45       1
    x[21]     c46       1
    x[21]     c49       1
    x[21]     c52       1
    x[21]     c53       1
    x[21]     c66       1
    x[21]     c77       1
    x[21]     c87       1
    x[21]     OBJ       1
    x[22]     c8        1
    x[22]     c16       1
    x[22]     c18       1
    x[22]     c22       1
    x[22]     c28       1
    x[22]     c30       1
    x[22]     c39       1
    x[22]     c40       1
    x[22]     c50       1
    x[22]     c68       1
    x[22]     c71       1
    x[22]     c72       1
    x[22]     c84       1
    x[22]     OBJ       1
    x[23]     c4        1
    x[23]     c11       1
    x[23]     c23       1
    x[23]     c44       1
    x[23]     c47       1
    x[23]     c62       1
    x[23]     c64       1
    x[23]     OBJ       1
    x[24]     c1        1
    x[24]     c2        1
    x[24]     c5        1
    x[24]     c24       1
    x[24]     c29       1
    x[24]     c32       1
    x[24]     c43       1
    x[24]     c62       1
    x[24]     c68       1
    x[24]     c69       1
    x[24]     OBJ       1
    x[25]     c5        1
    x[25]     c12       1
    x[25]     c25       1
    x[25]     c27       1
    x[25]     c29       1
    x[25]     c32       1
    x[25]     c50       1
    x[25]     c67       1
    x[25]     c86       1
    x[25]     OBJ       1
    x[26]     c15       1
    x[26]     c26       1
    x[26]     c27       1
    x[26]     c48       1
    x[26]     c73       1
    x[26]     c74       1
    x[26]     OBJ       1
    x[27]     c8        1
    x[27]     c9        1
    x[27]     c16       1
    x[27]     c25       1
    x[27]     c26       1
    x[27]     c27       1
    x[27]     c47       1
    x[27]     c59       1
    x[27]     c62       1
    x[27]     c68       1
    x[27]     OBJ       1
    x[28]     c4        1
    x[28]     c12       1
    x[28]     c22       1
    x[28]     c28       1
    x[28]     c35       1
    x[28]     c42       1
    x[28]     c48       1
    x[28]     c78       1
    x[28]     OBJ       1
    x[29]     c14       1
    x[29]     c24       1
    x[29]     c25       1
    x[29]     c29       1
    x[29]     c31       1
    x[29]     c42       1
    x[29]     c46       1
    x[29]     c50       1
    x[29]     c68       1
    x[29]     c69       1
    x[29]     c72       1
    x[29]     c73       1
    x[29]     c81       1
    x[29]     OBJ       1
    x[30]     c22       1
    x[30]     c30       1
    x[30]     c31       1
    x[30]     c77       1
    x[30]     c80       1
    x[30]     c86       1
    x[30]     c87       1
    x[30]     OBJ       1
    x[31]     c5        1
    x[31]     c16       1
    x[31]     c29       1
    x[31]     c30       1
    x[31]     c31       1
    x[31]     c35       1
    x[31]     c38       1
    x[31]     c74       1
    x[31]     c75       1
    x[31]     c79       1
    x[31]     OBJ       1
    x[32]     c9        1
    x[32]     c20       1
    x[32]     c24       1
    x[32]     c25       1
    x[32]     c32       1
    x[32]     c40       1
    x[32]     c71       1
    x[32]     c72       1
    x[32]     c76       1
    x[32]     OBJ       1
    x[33]     c1        1
    x[33]     c3        1
    x[33]     c15       1
    x[33]     c16       1
    x[33]     c33       1
    x[33]     c44       1
    x[33]     c48       1
    x[33]     c66       1
    x[33]     c74       1
    x[33]     c81       1
    x[33]     c89       1
    x[33]     OBJ       1
    x[34]     c34       1
    x[34]     c71       1
    x[34]     c86       1
    x[34]     OBJ       1
    x[35]     c11       1
    x[35]     c20       1
    x[35]     c28       1
    x[35]     c31       1
    x[35]     c35       1
    x[35]     c39       1
    x[35]     c52       1
    x[35]     c55       1
    x[35]     c65       1
    x[35]     c83       1
    x[35]     OBJ       1
    x[36]     c9        1
    x[36]     c16       1
    x[36]     c18       1
    x[36]     c36       1
    x[36]     c45       1
    x[36]     c47       1
    x[36]     c48       1
    x[36]     c62       1
    x[36]     c63       1
    x[36]     c64       1
    x[36]     c78       1
    x[36]     OBJ       1
    x[37]     c2        1
    x[37]     c37       1
    x[37]     c41       1
    x[37]     c50       1
    x[37]     c51       1
    x[37]     c69       1
    x[37]     c70       1
    x[37]     c71       1
    x[37]     c77       1
    x[37]     OBJ       1
    x[38]     c2        1
    x[38]     c3        1
    x[38]     c4        1
    x[38]     c11       1
    x[38]     c31       1
    x[38]     c38       1
    x[38]     c42       1
    x[38]     c53       1
    x[38]     c64       1
    x[38]     c68       1
    x[38]     c72       1
    x[38]     c73       1
    x[38]     OBJ       1
    x[39]     c4        1
    x[39]     c11       1
    x[39]     c22       1
    x[39]     c35       1
    x[39]     c39       1
    x[39]     c71       1
    x[39]     c82       1
    x[39]     c89       1
    x[39]     OBJ       1
    x[40]     c21       1
    x[40]     c22       1
    x[40]     c32       1
    x[40]     c40       1
    x[40]     c58       1
    x[40]     c62       1
    x[40]     c73       1
    x[40]     c76       1
    x[40]     c81       1
    x[40]     c84       1
    x[40]     c85       1
    x[40]     c87       1
    x[40]     OBJ       1
    x[41]     c6        1
    x[41]     c37       1
    x[41]     c41       1
    x[41]     c44       1
    x[41]     c63       1
    x[41]     c68       1
    x[41]     c85       1
    x[41]     OBJ       1
    x[42]     c15       1
    x[42]     c28       1
    x[42]     c29       1
    x[42]     c38       1
    x[42]     c42       1
    x[42]     c45       1
    x[42]     c53       1
    x[42]     c59       1
    x[42]     c65       1
    x[42]     c84       1
    x[42]     c85       1
    x[42]     c88       1
    x[42]     c90       1
    x[42]     OBJ       1
    x[43]     c3        1
    x[43]     c11       1
    x[43]     c15       1
    x[43]     c16       1
    x[43]     c24       1
    x[43]     c43       1
    x[43]     c60       1
    x[43]     c67       1
    x[43]     c84       1
    x[43]     OBJ       1
    x[44]     c10       1
    x[44]     c23       1
    x[44]     c33       1
    x[44]     c41       1
    x[44]     c44       1
    x[44]     c56       1
    x[44]     c72       1
    x[44]     c73       1
    x[44]     c78       1
    x[44]     OBJ       1
    x[45]     c8        1
    x[45]     c15       1
    x[45]     c17       1
    x[45]     c21       1
    x[45]     c36       1
    x[45]     c42       1
    x[45]     c45       1
    x[45]     c66       1
    x[45]     c75       1
    x[45]     c83       1
    x[45]     c87       1
    x[45]     OBJ       1
    x[46]     c21       1
    x[46]     c29       1
    x[46]     c46       1
    x[46]     c48       1
    x[46]     c65       1
    x[46]     c72       1
    x[46]     OBJ       1
    x[47]     c2        1
    x[47]     c15       1
    x[47]     c16       1
    x[47]     c17       1
    x[47]     c23       1
    x[47]     c27       1
    x[47]     c36       1
    x[47]     c47       1
    x[47]     c50       1
    x[47]     c54       1
    x[47]     c63       1
    x[47]     c67       1
    x[47]     c72       1
    x[47]     c81       1
    x[47]     c87       1
    x[47]     c88       1
    x[47]     c90       1
    x[47]     OBJ       1
    x[48]     c11       1
    x[48]     c26       1
    x[48]     c28       1
    x[48]     c33       1
    x[48]     c36       1
    x[48]     c46       1
    x[48]     c48       1
    x[48]     c57       1
    x[48]     c88       1
    x[48]     c89       1
    x[48]     OBJ       1
    x[49]     c12       1
    x[49]     c17       1
    x[49]     c21       1
    x[49]     c49       1
    x[49]     c61       1
    x[49]     c62       1
    x[49]     c65       1
    x[49]     c68       1
    x[49]     c69       1
    x[49]     c70       1
    x[49]     OBJ       1
    x[50]     c3        1
    x[50]     c22       1
    x[50]     c25       1
    x[50]     c29       1
    x[50]     c37       1
    x[50]     c47       1
    x[50]     c50       1
    x[50]     c60       1
    x[50]     c65       1
    x[50]     c80       1
    x[50]     c87       1
    x[50]     c89       1
    x[50]     OBJ       1
    x[51]     c37       1
    x[51]     c51       1
    x[51]     c52       1
    x[51]     c57       1
    x[51]     c61       1
    x[51]     c72       1
    x[51]     c80       1
    x[51]     c85       1
    x[51]     OBJ       1
    x[52]     c3        1
    x[52]     c21       1
    x[52]     c35       1
    x[52]     c51       1
    x[52]     c52       1
    x[52]     c60       1
    x[52]     c70       1
    x[52]     c73       1
    x[52]     c75       1
    x[52]     OBJ       1
    x[53]     c8        1
    x[53]     c21       1
    x[53]     c38       1
    x[53]     c42       1
    x[53]     c53       1
    x[53]     c57       1
    x[53]     c69       1
    x[53]     c73       1
    x[53]     c79       1
    x[53]     OBJ       1
    x[54]     c3        1
    x[54]     c7        1
    x[54]     c8        1
    x[54]     c20       1
    x[54]     c47       1
    x[54]     c54       1
    x[54]     c68       1
    x[54]     c76       1
    x[54]     c86       1
    x[54]     OBJ       1
    x[55]     c15       1
    x[55]     c35       1
    x[55]     c55       1
    x[55]     c60       1
    x[55]     c66       1
    x[55]     c68       1
    x[55]     c79       1
    x[55]     c84       1
    x[55]     OBJ       1
    x[56]     c44       1
    x[56]     c56       1
    x[56]     c63       1
    x[56]     c82       1
    x[56]     c88       1
    x[56]     OBJ       1
    x[57]     c3        1
    x[57]     c9        1
    x[57]     c48       1
    x[57]     c51       1
    x[57]     c53       1
    x[57]     c57       1
    x[57]     c73       1
    x[57]     c81       1
    x[57]     OBJ       1
    x[58]     c1        1
    x[58]     c2        1
    x[58]     c12       1
    x[58]     c40       1
    x[58]     c58       1
    x[58]     c63       1
    x[58]     c65       1
    x[58]     c74       1
    x[58]     c80       1
    x[58]     OBJ       1
    x[59]     c5        1
    x[59]     c9        1
    x[59]     c14       1
    x[59]     c27       1
    x[59]     c42       1
    x[59]     c59       1
    x[59]     c66       1
    x[59]     c67       1
    x[59]     c73       1
    x[59]     c89       1
    x[59]     OBJ       1
    x[60]     c7        1
    x[60]     c43       1
    x[60]     c50       1
    x[60]     c52       1
    x[60]     c55       1
    x[60]     c60       1
    x[60]     c61       1
    x[60]     c63       1
    x[60]     c69       1
    x[60]     c71       1
    x[60]     c75       1
    x[60]     c83       1
    x[60]     OBJ       1
    x[61]     c13       1
    x[61]     c49       1
    x[61]     c51       1
    x[61]     c60       1
    x[61]     c61       1
    x[61]     c69       1
    x[61]     c73       1
    x[61]     c74       1
    x[61]     OBJ       1
    x[62]     c5        1
    x[62]     c6        1
    x[62]     c23       1
    x[62]     c24       1
    x[62]     c27       1
    x[62]     c36       1
    x[62]     c40       1
    x[62]     c49       1
    x[62]     c62       1
    x[62]     c69       1
    x[62]     c72       1
    x[62]     c76       1
    x[62]     c78       1
    x[62]     OBJ       1
    x[63]     c19       1
    x[63]     c36       1
    x[63]     c41       1
    x[63]     c47       1
    x[63]     c56       1
    x[63]     c58       1
    x[63]     c60       1
    x[63]     c63       1
    x[63]     c69       1
    x[63]     c70       1
    x[63]     OBJ       1
    x[64]     c5        1
    x[64]     c16       1
    x[64]     c23       1
    x[64]     c36       1
    x[64]     c38       1
    x[64]     c64       1
    x[64]     c81       1
    x[64]     c88       1
    x[64]     c89       1
    x[64]     OBJ       1
    x[65]     c12       1
    x[65]     c35       1
    x[65]     c42       1
    x[65]     c46       1
    x[65]     c49       1
    x[65]     c50       1
    x[65]     c58       1
    x[65]     c65       1
    x[65]     OBJ       1
    x[66]     c6        1
    x[66]     c14       1
    x[66]     c15       1
    x[66]     c18       1
    x[66]     c21       1
    x[66]     c33       1
    x[66]     c45       1
    x[66]     c55       1
    x[66]     c59       1
    x[66]     c66       1
    x[66]     c72       1
    x[66]     OBJ       1
    x[67]     c3        1
    x[67]     c15       1
    x[67]     c25       1
    x[67]     c43       1
    x[67]     c47       1
    x[67]     c59       1
    x[67]     c67       1
    x[67]     c73       1
    x[67]     c80       1
    x[67]     OBJ       1
    x[68]     c18       1
    x[68]     c22       1
    x[68]     c24       1
    x[68]     c27       1
    x[68]     c29       1
    x[68]     c38       1
    x[68]     c41       1
    x[68]     c49       1
    x[68]     c54       1
    x[68]     c55       1
    x[68]     c68       1
    x[68]     c69       1
    x[68]     c70       1
    x[68]     c83       1
    x[68]     OBJ       1
    x[69]     c4        1
    x[69]     c20       1
    x[69]     c24       1
    x[69]     c29       1
    x[69]     c37       1
    x[69]     c49       1
    x[69]     c53       1
    x[69]     c60       1
    x[69]     c61       1
    x[69]     c62       1
    x[69]     c63       1
    x[69]     c68       1
    x[69]     c69       1
    x[69]     c74       1
    x[69]     c80       1
    x[69]     c86       1
    x[69]     OBJ       1
    x[70]     c2        1
    x[70]     c20       1
    x[70]     c37       1
    x[70]     c49       1
    x[70]     c52       1
    x[70]     c63       1
    x[70]     c68       1
    x[70]     c70       1
    x[70]     c75       1
    x[70]     c77       1
    x[70]     c90       1
    x[70]     OBJ       1
    x[71]     c1        1
    x[71]     c8        1
    x[71]     c22       1
    x[71]     c32       1
    x[71]     c34       1
    x[71]     c37       1
    x[71]     c39       1
    x[71]     c60       1
    x[71]     c71       1
    x[71]     c82       1
    x[71]     c88       1
    x[71]     OBJ       1
    x[72]     c14       1
    x[72]     c18       1
    x[72]     c22       1
    x[72]     c29       1
    x[72]     c32       1
    x[72]     c38       1
    x[72]     c44       1
    x[72]     c46       1
    x[72]     c47       1
    x[72]     c51       1
    x[72]     c62       1
    x[72]     c66       1
    x[72]     c72       1
    x[72]     OBJ       1
    x[73]     c6        1
    x[73]     c14       1
    x[73]     c19       1
    x[73]     c26       1
    x[73]     c29       1
    x[73]     c38       1
    x[73]     c40       1
    x[73]     c44       1
    x[73]     c52       1
    x[73]     c53       1
    x[73]     c57       1
    x[73]     c59       1
    x[73]     c61       1
    x[73]     c67       1
    x[73]     c73       1
    x[73]     c78       1
    x[73]     c81       1
    x[73]     c84       1
    x[73]     OBJ       1
    x[74]     c3        1
    x[74]     c26       1
    x[74]     c31       1
    x[74]     c33       1
    x[74]     c58       1
    x[74]     c61       1
    x[74]     c69       1
    x[74]     c74       1
    x[74]     c75       1
    x[74]     c84       1
    x[74]     OBJ       1
    x[75]     c4        1
    x[75]     c7        1
    x[75]     c31       1
    x[75]     c45       1
    x[75]     c52       1
    x[75]     c60       1
    x[75]     c70       1
    x[75]     c74       1
    x[75]     c75       1
    x[75]     c88       1
    x[75]     OBJ       1
    x[76]     c6        1
    x[76]     c18       1
    x[76]     c32       1
    x[76]     c40       1
    x[76]     c54       1
    x[76]     c62       1
    x[76]     c76       1
    x[76]     OBJ       1
    x[77]     c4        1
    x[77]     c21       1
    x[77]     c30       1
    x[77]     c37       1
    x[77]     c70       1
    x[77]     c77       1
    x[77]     OBJ       1
    x[78]     c1        1
    x[78]     c2        1
    x[78]     c20       1
    x[78]     c28       1
    x[78]     c36       1
    x[78]     c44       1
    x[78]     c62       1
    x[78]     c73       1
    x[78]     c78       1
    x[78]     c80       1
    x[78]     c81       1
    x[78]     c84       1
    x[78]     OBJ       1
    x[79]     c2        1
    x[79]     c8        1
    x[79]     c14       1
    x[79]     c31       1
    x[79]     c53       1
    x[79]     c55       1
    x[79]     c79       1
    x[79]     c84       1
    x[79]     OBJ       1
    x[80]     c8        1
    x[80]     c11       1
    x[80]     c30       1
    x[80]     c50       1
    x[80]     c51       1
    x[80]     c58       1
    x[80]     c67       1
    x[80]     c69       1
    x[80]     c78       1
    x[80]     c80       1
    x[80]     c86       1
    x[80]     OBJ       1
    x[81]     c2        1
    x[81]     c3        1
    x[81]     c4        1
    x[81]     c6        1
    x[81]     c7        1
    x[81]     c29       1
    x[81]     c33       1
    x[81]     c40       1
    x[81]     c47       1
    x[81]     c57       1
    x[81]     c64       1
    x[81]     c73       1
    x[81]     c78       1
    x[81]     c81       1
    x[81]     OBJ       1
    x[82]     c6        1
    x[82]     c8        1
    x[82]     c39       1
    x[82]     c56       1
    x[82]     c71       1
    x[82]     c82       1
    x[82]     c84       1
    x[82]     OBJ       1
    x[83]     c2        1
    x[83]     c7        1
    x[83]     c9        1
    x[83]     c10       1
    x[83]     c17       1
    x[83]     c18       1
    x[83]     c35       1
    x[83]     c45       1
    x[83]     c60       1
    x[83]     c68       1
    x[83]     c83       1
    x[83]     c87       1
    x[83]     OBJ       1
    x[84]     c3        1
    x[84]     c4        1
    x[84]     c5        1
    x[84]     c9        1
    x[84]     c22       1
    x[84]     c40       1
    x[84]     c42       1
    x[84]     c43       1
    x[84]     c55       1
    x[84]     c73       1
    x[84]     c74       1
    x[84]     c78       1
    x[84]     c79       1
    x[84]     c82       1
    x[84]     c84       1
    x[84]     OBJ       1
    x[85]     c14       1
    x[85]     c15       1
    x[85]     c40       1
    x[85]     c41       1
    x[85]     c42       1
    x[85]     c51       1
    x[85]     c85       1
    x[85]     c86       1
    x[85]     OBJ       1
    x[86]     c6        1
    x[86]     c7        1
    x[86]     c13       1
    x[86]     c25       1
    x[86]     c30       1
    x[86]     c34       1
    x[86]     c54       1
    x[86]     c69       1
    x[86]     c80       1
    x[86]     c85       1
    x[86]     c86       1
    x[86]     c89       1
    x[86]     OBJ       1
    x[87]     c12       1
    x[87]     c21       1
    x[87]     c30       1
    x[87]     c40       1
    x[87]     c45       1
    x[87]     c47       1
    x[87]     c50       1
    x[87]     c83       1
    x[87]     c87       1
    x[87]     OBJ       1
    x[88]     c42       1
    x[88]     c47       1
    x[88]     c48       1
    x[88]     c56       1
    x[88]     c64       1
    x[88]     c71       1
    x[88]     c75       1
    x[88]     c88       1
    x[88]     OBJ       1
    x[89]     c33       1
    x[89]     c39       1
    x[89]     c48       1
    x[89]     c50       1
    x[89]     c59       1
    x[89]     c64       1
    x[89]     c86       1
    x[89]     c89       1
    x[89]     OBJ       1
    x[90]     c18       1
    x[90]     c42       1
    x[90]     c47       1
    x[90]     c70       1
    x[90]     c90       1
    x[90]     OBJ       1
    MARKER    'MARKER'                 'INTEND'
RHS
    rhs       c1        1
    rhs       c2        1
    rhs       c3        1
    rhs       c4        1
    rhs       c5        1
    rhs       c6        1
    rhs       c7        1
    rhs       c8        1
    rhs       c9        1
    rhs       c10       1
    rhs       c11       1
    rhs       c12       1
    rhs       c13       1
    rhs       c14       1
    rhs       c15       1
    rhs       c16       1
    rhs       c17       1
    rhs       c18       1
    rhs       c19       1
    rhs       c20       1
    rhs       c21       1
    rhs       c22       1
    rhs       c23       1
    rhs       c24       1
    rhs       c25       1
    rhs       c26       1
    rhs       c27       1
    rhs       c28       1
    rhs       c29       1
    rhs       c30       1
    rhs       c31       1
    rhs       c32       1
    rhs       c33       1
    rhs       c34       1
    rhs       c35       1
    rhs       c36       1
    rhs       c37       1
    rhs       c38       1
    rhs       c39       1
    rhs       c40       1
    rhs       c41       1
    rhs       c42       1
    rhs       c43       1
    rhs       c44       1
    rhs       c45       1
    rhs       c46       1
    rhs       c47       1
    rhs       c48       1
    rhs       c49       1
    rhs       c50       1
    rhs       c51       1
    rhs       c52       1
    rhs       c53       1
    rhs       c54       1
    rhs       c55       1
    rhs       c56       1
    rhs       c57       1
    rhs       c58       1
    rhs       c59       1
    rhs       c60       1
    rhs       c61       1
    rhs       c62       1
    rhs       c63       1
    rhs       c64       1
    rhs       c65       1
    rhs       c66       1
    rhs       c67       1
    rhs       c68       1
    rhs       c69       1
    rhs       c70       1
    rhs       c71       1
    rhs       c72       1
    rhs       c73       1
    rhs       c74       1
    rhs       c75       1
    rhs       c76       1
    rhs       c77       1
    rhs       c78       1
    rhs       c79       1
    rhs       c80       1
    rhs       c81       1
    rhs       c82       1
    rhs       c83       1
    rhs       c84       1
    rhs       c85       1
    rhs       c86       1
    rhs       c87       1
    rhs       c88       1
    rhs       c89       1
    rhs       c90       1
RANGES
BOUNDS
 BV bounds    x[1]
 BV bounds    x[2]
 BV bounds    x[3]
 BV bounds    x[4]
 BV bounds    x[5]
 BV bounds    x[6]
 BV bounds    x[7]
 BV bounds    x[8]
 BV bounds    x[9]
 BV bounds    x[10]
 BV bounds    x[11]
 BV bounds    x[12]
 BV bounds    x[13]
 BV bounds    x[14]
 BV bounds    x[15]
 BV bounds    x[16]
 BV bounds    x[17]
 BV bounds    x[18]
 BV bounds    x[19]
 BV bounds    x[20]
 BV bounds    x[21]
 BV bounds    x[22]
 BV bounds    x[23]
 BV bounds    x[24]
 BV bounds    x[25]
 BV bounds    x[26]
 BV bounds    x[27]
 BV bounds    x[28]
 BV bounds    x[29]
 BV bounds    x[30]
 BV bounds    x[31]
 BV bounds    x[32]
 BV bounds    x[33]
 BV bounds    x[34]
 BV bounds    x[35]
 BV bounds    x[36]
 BV bounds    x[37]
 BV bounds    x[38]
 BV bounds    x[39]
 BV bounds    x[40]
 BV bounds    x[41]
 BV bounds    x[42]
 BV bounds    x[43]
 BV bounds    x[44]
 BV bounds    x[45]
 BV bounds    x[46]
 BV bounds    x[47]
 BV bounds    x[48]
 BV bounds    x[49]
 BV bounds    x[50]
 BV bounds    x[51]
 BV bounds    x[52]
 BV bounds    x[53]
 BV bounds    x[54]
 BV bounds    x[55]
 BV bounds    x[56]
 BV bounds    x[57]
 BV bounds    x[58]
 BV bounds    x[59]
 BV bounds    x[60]
 BV bounds    x[61]
 BV bounds    x[62]
 BV bounds    x[63]
 BV bounds    x[64]
 BV bounds    x[65]
 BV bounds    x[66]
 BV bounds    x[67]
 BV bounds    x[68]
 BV bounds    x[69]
 BV bounds    x[70]
 BV bounds    x[71]
 BV bounds    x[72]
 BV bounds    x[73]
 BV bounds    x[74]
 BV bounds    x[75]
 BV bounds    x[76]
 BV bounds    x[77]
 BV bounds    x[78]
 BV bounds    x[79]
 BV bounds    x[80]
 BV bounds    x[81]
 BV bounds    x[82]
 BV bounds    x[83]
 BV bounds    x[84]
 BV bounds    x[85]
 BV bounds    x[86]
 BV bounds    x[87]
 BV bounds    x[88]
 BV bounds    x[89]
 BV bounds    x[90]
ENDATA
